c *********************************
c * Circuit generated by BenCGen
c *
c * Parity_188
c *
c * Ports with 1 gate(s): 1
c * Ports with 2 gate(s): 188
c * Total gates: 189
c *********************************
p cnf 377 753
1 191 0
-1 -191 0
1 -190 0
191 -190 0
-1 -191 190 0
1 2 -192 0
-1 2 192 0
1 -2 192 0
-1 -2 -192 0
3 4 -193 0
-3 4 193 0
3 -4 193 0
-3 -4 -193 0
5 6 -194 0
-5 6 194 0
5 -6 194 0
-5 -6 -194 0
7 8 -195 0
-7 8 195 0
7 -8 195 0
-7 -8 -195 0
9 10 -196 0
-9 10 196 0
9 -10 196 0
-9 -10 -196 0
11 12 -197 0
-11 12 197 0
11 -12 197 0
-11 -12 -197 0
13 14 -198 0
-13 14 198 0
13 -14 198 0
-13 -14 -198 0
15 16 -199 0
-15 16 199 0
15 -16 199 0
-15 -16 -199 0
17 18 -200 0
-17 18 200 0
17 -18 200 0
-17 -18 -200 0
19 20 -201 0
-19 20 201 0
19 -20 201 0
-19 -20 -201 0
21 22 -202 0
-21 22 202 0
21 -22 202 0
-21 -22 -202 0
23 24 -203 0
-23 24 203 0
23 -24 203 0
-23 -24 -203 0
25 26 -204 0
-25 26 204 0
25 -26 204 0
-25 -26 -204 0
27 28 -205 0
-27 28 205 0
27 -28 205 0
-27 -28 -205 0
29 30 -206 0
-29 30 206 0
29 -30 206 0
-29 -30 -206 0
31 32 -207 0
-31 32 207 0
31 -32 207 0
-31 -32 -207 0
33 34 -208 0
-33 34 208 0
33 -34 208 0
-33 -34 -208 0
35 36 -209 0
-35 36 209 0
35 -36 209 0
-35 -36 -209 0
37 38 -210 0
-37 38 210 0
37 -38 210 0
-37 -38 -210 0
39 40 -211 0
-39 40 211 0
39 -40 211 0
-39 -40 -211 0
41 42 -212 0
-41 42 212 0
41 -42 212 0
-41 -42 -212 0
43 44 -213 0
-43 44 213 0
43 -44 213 0
-43 -44 -213 0
45 46 -214 0
-45 46 214 0
45 -46 214 0
-45 -46 -214 0
47 48 -215 0
-47 48 215 0
47 -48 215 0
-47 -48 -215 0
49 50 -216 0
-49 50 216 0
49 -50 216 0
-49 -50 -216 0
51 52 -217 0
-51 52 217 0
51 -52 217 0
-51 -52 -217 0
53 54 -218 0
-53 54 218 0
53 -54 218 0
-53 -54 -218 0
55 56 -219 0
-55 56 219 0
55 -56 219 0
-55 -56 -219 0
57 58 -220 0
-57 58 220 0
57 -58 220 0
-57 -58 -220 0
59 60 -221 0
-59 60 221 0
59 -60 221 0
-59 -60 -221 0
61 62 -222 0
-61 62 222 0
61 -62 222 0
-61 -62 -222 0
63 64 -223 0
-63 64 223 0
63 -64 223 0
-63 -64 -223 0
65 66 -224 0
-65 66 224 0
65 -66 224 0
-65 -66 -224 0
67 68 -225 0
-67 68 225 0
67 -68 225 0
-67 -68 -225 0
69 70 -226 0
-69 70 226 0
69 -70 226 0
-69 -70 -226 0
71 72 -227 0
-71 72 227 0
71 -72 227 0
-71 -72 -227 0
73 74 -228 0
-73 74 228 0
73 -74 228 0
-73 -74 -228 0
75 76 -229 0
-75 76 229 0
75 -76 229 0
-75 -76 -229 0
77 78 -230 0
-77 78 230 0
77 -78 230 0
-77 -78 -230 0
79 80 -231 0
-79 80 231 0
79 -80 231 0
-79 -80 -231 0
81 82 -232 0
-81 82 232 0
81 -82 232 0
-81 -82 -232 0
83 84 -233 0
-83 84 233 0
83 -84 233 0
-83 -84 -233 0
85 86 -234 0
-85 86 234 0
85 -86 234 0
-85 -86 -234 0
87 88 -235 0
-87 88 235 0
87 -88 235 0
-87 -88 -235 0
89 90 -236 0
-89 90 236 0
89 -90 236 0
-89 -90 -236 0
91 92 -237 0
-91 92 237 0
91 -92 237 0
-91 -92 -237 0
93 94 -238 0
-93 94 238 0
93 -94 238 0
-93 -94 -238 0
95 96 -239 0
-95 96 239 0
95 -96 239 0
-95 -96 -239 0
97 98 -240 0
-97 98 240 0
97 -98 240 0
-97 -98 -240 0
99 100 -241 0
-99 100 241 0
99 -100 241 0
-99 -100 -241 0
101 102 -242 0
-101 102 242 0
101 -102 242 0
-101 -102 -242 0
103 104 -243 0
-103 104 243 0
103 -104 243 0
-103 -104 -243 0
105 106 -244 0
-105 106 244 0
105 -106 244 0
-105 -106 -244 0
107 108 -245 0
-107 108 245 0
107 -108 245 0
-107 -108 -245 0
109 110 -246 0
-109 110 246 0
109 -110 246 0
-109 -110 -246 0
111 112 -247 0
-111 112 247 0
111 -112 247 0
-111 -112 -247 0
113 114 -248 0
-113 114 248 0
113 -114 248 0
-113 -114 -248 0
115 116 -249 0
-115 116 249 0
115 -116 249 0
-115 -116 -249 0
117 118 -250 0
-117 118 250 0
117 -118 250 0
-117 -118 -250 0
119 120 -251 0
-119 120 251 0
119 -120 251 0
-119 -120 -251 0
121 122 -252 0
-121 122 252 0
121 -122 252 0
-121 -122 -252 0
123 124 -253 0
-123 124 253 0
123 -124 253 0
-123 -124 -253 0
125 126 -254 0
-125 126 254 0
125 -126 254 0
-125 -126 -254 0
127 128 -255 0
-127 128 255 0
127 -128 255 0
-127 -128 -255 0
129 130 -256 0
-129 130 256 0
129 -130 256 0
-129 -130 -256 0
131 132 -257 0
-131 132 257 0
131 -132 257 0
-131 -132 -257 0
133 134 -258 0
-133 134 258 0
133 -134 258 0
-133 -134 -258 0
135 136 -259 0
-135 136 259 0
135 -136 259 0
-135 -136 -259 0
137 138 -260 0
-137 138 260 0
137 -138 260 0
-137 -138 -260 0
139 140 -261 0
-139 140 261 0
139 -140 261 0
-139 -140 -261 0
141 142 -262 0
-141 142 262 0
141 -142 262 0
-141 -142 -262 0
143 144 -263 0
-143 144 263 0
143 -144 263 0
-143 -144 -263 0
145 146 -264 0
-145 146 264 0
145 -146 264 0
-145 -146 -264 0
147 148 -265 0
-147 148 265 0
147 -148 265 0
-147 -148 -265 0
149 150 -266 0
-149 150 266 0
149 -150 266 0
-149 -150 -266 0
151 152 -267 0
-151 152 267 0
151 -152 267 0
-151 -152 -267 0
153 154 -268 0
-153 154 268 0
153 -154 268 0
-153 -154 -268 0
155 156 -269 0
-155 156 269 0
155 -156 269 0
-155 -156 -269 0
157 158 -270 0
-157 158 270 0
157 -158 270 0
-157 -158 -270 0
159 160 -271 0
-159 160 271 0
159 -160 271 0
-159 -160 -271 0
161 162 -272 0
-161 162 272 0
161 -162 272 0
-161 -162 -272 0
163 164 -273 0
-163 164 273 0
163 -164 273 0
-163 -164 -273 0
165 166 -274 0
-165 166 274 0
165 -166 274 0
-165 -166 -274 0
167 168 -275 0
-167 168 275 0
167 -168 275 0
-167 -168 -275 0
169 170 -276 0
-169 170 276 0
169 -170 276 0
-169 -170 -276 0
171 172 -277 0
-171 172 277 0
171 -172 277 0
-171 -172 -277 0
173 174 -278 0
-173 174 278 0
173 -174 278 0
-173 -174 -278 0
175 176 -279 0
-175 176 279 0
175 -176 279 0
-175 -176 -279 0
177 178 -280 0
-177 178 280 0
177 -178 280 0
-177 -178 -280 0
179 180 -281 0
-179 180 281 0
179 -180 281 0
-179 -180 -281 0
181 182 -282 0
-181 182 282 0
181 -182 282 0
-181 -182 -282 0
183 184 -283 0
-183 184 283 0
183 -184 283 0
-183 -184 -283 0
185 186 -284 0
-185 186 284 0
185 -186 284 0
-185 -186 -284 0
187 188 -285 0
-187 188 285 0
187 -188 285 0
-187 -188 -285 0
192 193 -286 0
-192 193 286 0
192 -193 286 0
-192 -193 -286 0
194 195 -287 0
-194 195 287 0
194 -195 287 0
-194 -195 -287 0
196 197 -288 0
-196 197 288 0
196 -197 288 0
-196 -197 -288 0
198 199 -289 0
-198 199 289 0
198 -199 289 0
-198 -199 -289 0
200 201 -290 0
-200 201 290 0
200 -201 290 0
-200 -201 -290 0
202 203 -291 0
-202 203 291 0
202 -203 291 0
-202 -203 -291 0
204 205 -292 0
-204 205 292 0
204 -205 292 0
-204 -205 -292 0
206 207 -293 0
-206 207 293 0
206 -207 293 0
-206 -207 -293 0
208 209 -294 0
-208 209 294 0
208 -209 294 0
-208 -209 -294 0
210 211 -295 0
-210 211 295 0
210 -211 295 0
-210 -211 -295 0
212 213 -296 0
-212 213 296 0
212 -213 296 0
-212 -213 -296 0
214 215 -297 0
-214 215 297 0
214 -215 297 0
-214 -215 -297 0
216 217 -298 0
-216 217 298 0
216 -217 298 0
-216 -217 -298 0
218 219 -299 0
-218 219 299 0
218 -219 299 0
-218 -219 -299 0
220 221 -300 0
-220 221 300 0
220 -221 300 0
-220 -221 -300 0
222 223 -301 0
-222 223 301 0
222 -223 301 0
-222 -223 -301 0
224 225 -302 0
-224 225 302 0
224 -225 302 0
-224 -225 -302 0
226 227 -303 0
-226 227 303 0
226 -227 303 0
-226 -227 -303 0
228 229 -304 0
-228 229 304 0
228 -229 304 0
-228 -229 -304 0
230 231 -305 0
-230 231 305 0
230 -231 305 0
-230 -231 -305 0
232 233 -306 0
-232 233 306 0
232 -233 306 0
-232 -233 -306 0
234 235 -307 0
-234 235 307 0
234 -235 307 0
-234 -235 -307 0
236 237 -308 0
-236 237 308 0
236 -237 308 0
-236 -237 -308 0
238 239 -309 0
-238 239 309 0
238 -239 309 0
-238 -239 -309 0
240 241 -310 0
-240 241 310 0
240 -241 310 0
-240 -241 -310 0
242 243 -311 0
-242 243 311 0
242 -243 311 0
-242 -243 -311 0
244 245 -312 0
-244 245 312 0
244 -245 312 0
-244 -245 -312 0
246 247 -313 0
-246 247 313 0
246 -247 313 0
-246 -247 -313 0
248 249 -314 0
-248 249 314 0
248 -249 314 0
-248 -249 -314 0
250 251 -315 0
-250 251 315 0
250 -251 315 0
-250 -251 -315 0
252 253 -316 0
-252 253 316 0
252 -253 316 0
-252 -253 -316 0
254 255 -317 0
-254 255 317 0
254 -255 317 0
-254 -255 -317 0
256 257 -318 0
-256 257 318 0
256 -257 318 0
-256 -257 -318 0
258 259 -319 0
-258 259 319 0
258 -259 319 0
-258 -259 -319 0
260 261 -320 0
-260 261 320 0
260 -261 320 0
-260 -261 -320 0
262 263 -321 0
-262 263 321 0
262 -263 321 0
-262 -263 -321 0
264 265 -322 0
-264 265 322 0
264 -265 322 0
-264 -265 -322 0
266 267 -323 0
-266 267 323 0
266 -267 323 0
-266 -267 -323 0
268 269 -324 0
-268 269 324 0
268 -269 324 0
-268 -269 -324 0
270 271 -325 0
-270 271 325 0
270 -271 325 0
-270 -271 -325 0
272 273 -326 0
-272 273 326 0
272 -273 326 0
-272 -273 -326 0
274 275 -327 0
-274 275 327 0
274 -275 327 0
-274 -275 -327 0
276 277 -328 0
-276 277 328 0
276 -277 328 0
-276 -277 -328 0
278 279 -329 0
-278 279 329 0
278 -279 329 0
-278 -279 -329 0
280 281 -330 0
-280 281 330 0
280 -281 330 0
-280 -281 -330 0
282 283 -331 0
-282 283 331 0
282 -283 331 0
-282 -283 -331 0
284 285 -332 0
-284 285 332 0
284 -285 332 0
-284 -285 -332 0
286 287 -333 0
-286 287 333 0
286 -287 333 0
-286 -287 -333 0
288 289 -334 0
-288 289 334 0
288 -289 334 0
-288 -289 -334 0
290 291 -335 0
-290 291 335 0
290 -291 335 0
-290 -291 -335 0
292 293 -336 0
-292 293 336 0
292 -293 336 0
-292 -293 -336 0
294 295 -337 0
-294 295 337 0
294 -295 337 0
-294 -295 -337 0
296 297 -338 0
-296 297 338 0
296 -297 338 0
-296 -297 -338 0
298 299 -339 0
-298 299 339 0
298 -299 339 0
-298 -299 -339 0
300 301 -340 0
-300 301 340 0
300 -301 340 0
-300 -301 -340 0
302 303 -341 0
-302 303 341 0
302 -303 341 0
-302 -303 -341 0
304 305 -342 0
-304 305 342 0
304 -305 342 0
-304 -305 -342 0
306 307 -343 0
-306 307 343 0
306 -307 343 0
-306 -307 -343 0
308 309 -344 0
-308 309 344 0
308 -309 344 0
-308 -309 -344 0
310 311 -345 0
-310 311 345 0
310 -311 345 0
-310 -311 -345 0
312 313 -346 0
-312 313 346 0
312 -313 346 0
-312 -313 -346 0
314 315 -347 0
-314 315 347 0
314 -315 347 0
-314 -315 -347 0
316 317 -348 0
-316 317 348 0
316 -317 348 0
-316 -317 -348 0
318 319 -349 0
-318 319 349 0
318 -319 349 0
-318 -319 -349 0
320 321 -350 0
-320 321 350 0
320 -321 350 0
-320 -321 -350 0
322 323 -351 0
-322 323 351 0
322 -323 351 0
-322 -323 -351 0
324 325 -352 0
-324 325 352 0
324 -325 352 0
-324 -325 -352 0
326 327 -353 0
-326 327 353 0
326 -327 353 0
-326 -327 -353 0
328 329 -354 0
-328 329 354 0
328 -329 354 0
-328 -329 -354 0
330 331 -355 0
-330 331 355 0
330 -331 355 0
-330 -331 -355 0
333 334 -356 0
-333 334 356 0
333 -334 356 0
-333 -334 -356 0
335 336 -357 0
-335 336 357 0
335 -336 357 0
-335 -336 -357 0
337 338 -358 0
-337 338 358 0
337 -338 358 0
-337 -338 -358 0
339 340 -359 0
-339 340 359 0
339 -340 359 0
-339 -340 -359 0
341 342 -360 0
-341 342 360 0
341 -342 360 0
-341 -342 -360 0
343 344 -361 0
-343 344 361 0
343 -344 361 0
-343 -344 -361 0
345 346 -362 0
-345 346 362 0
345 -346 362 0
-345 -346 -362 0
347 348 -363 0
-347 348 363 0
347 -348 363 0
-347 -348 -363 0
349 350 -364 0
-349 350 364 0
349 -350 364 0
-349 -350 -364 0
351 352 -365 0
-351 352 365 0
351 -352 365 0
-351 -352 -365 0
353 354 -366 0
-353 354 366 0
353 -354 366 0
-353 -354 -366 0
355 332 -367 0
-355 332 367 0
355 -332 367 0
-355 -332 -367 0
356 357 -368 0
-356 357 368 0
356 -357 368 0
-356 -357 -368 0
358 359 -369 0
-358 359 369 0
358 -359 369 0
-358 -359 -369 0
360 361 -370 0
-360 361 370 0
360 -361 370 0
-360 -361 -370 0
362 363 -371 0
-362 363 371 0
362 -363 371 0
-362 -363 -371 0
364 365 -372 0
-364 365 372 0
364 -365 372 0
-364 -365 -372 0
366 367 -373 0
-366 367 373 0
366 -367 373 0
-366 -367 -373 0
368 369 -374 0
-368 369 374 0
368 -369 374 0
-368 -369 -374 0
370 371 -375 0
-370 371 375 0
370 -371 375 0
-370 -371 -375 0
372 373 -376 0
-372 373 376 0
372 -373 376 0
-372 -373 -376 0
374 375 -377 0
-374 375 377 0
374 -375 377 0
-374 -375 -377 0
377 376 -189 0
-377 376 189 0
377 -376 189 0
-377 -376 -189 0
